c This is a CNF SAT formula in the DIMACS CNF format,
c produced with the bc2cnf translator by Tommi Junttila;
c see http://users.ics.aalto.fi/tjunttil/circuits/index.html
c Z <-> 3
c P3_0 <-> 10
c P2_2 <-> 15
c P2_1 <-> 18
c P2_0 <-> 21
c P1_6 <-> 26
c P1_5 <-> 29
c P1_4 <-> 32
c P1_3 <-> 35
c P1_2 <-> 38
c P1_1 <-> 41
c P1_0 <-> 44
c P0_14 <-> 45
c P0_13 <-> 46
c P0_12 <-> 47
c P0_11 <-> 48
c P0_10 <-> 49
c P0_9 <-> 50
c P0_8 <-> 51
c P0_7 <-> 52
c P0_6 <-> 53
c P0_5 <-> 54
c P0_4 <-> 55
c P0_3 <-> 56
c P0_2 <-> 57
c P0_1 <-> 58
c P0_0 <-> 59
c S15 <-> 60
c A15 <-> 61
c B15 <-> 62
c b15 <-> 63
c C15 <-> 64
c G0_14 <-> 67
c A14 <-> 68
c B14 <-> 69
c b14 <-> 70
c C14 <-> 71
c G0_13 <-> 74
c A13 <-> 75
c B13 <-> 76
c b13 <-> 77
c C13 <-> 78
c G0_12 <-> 81
c A12 <-> 82
c B12 <-> 83
c b12 <-> 84
c C12 <-> 85
c G0_11 <-> 88
c A11 <-> 89
c B11 <-> 90
c b11 <-> 91
c C11 <-> 92
c G0_10 <-> 95
c A10 <-> 96
c B10 <-> 97
c b10 <-> 98
c C10 <-> 99
c G0_9 <-> 102
c A9 <-> 103
c B9 <-> 104
c b9 <-> 105
c C9 <-> 106
c G0_8 <-> 109
c A8 <-> 110
c B8 <-> 111
c b8 <-> 112
c C8 <-> 113
c G0_7 <-> 116
c A7 <-> 117
c B7 <-> 118
c b7 <-> 119
c C7 <-> 120
c G0_6 <-> 123
c A6 <-> 124
c B6 <-> 125
c b6 <-> 126
c C6 <-> 127
c G0_5 <-> 130
c A5 <-> 131
c B5 <-> 132
c b5 <-> 133
c C5 <-> 134
c G0_4 <-> 137
c A4 <-> 138
c B4 <-> 139
c b4 <-> 140
c C4 <-> 141
c G0_3 <-> 144
c A3 <-> 145
c B3 <-> 146
c b3 <-> 147
c C3 <-> 148
c G0_2 <-> 151
c A2 <-> 152
c B2 <-> 153
c b2 <-> 154
c C2 <-> 155
c G0_1 <-> 158
c A1 <-> 159
c B1 <-> 160
c b1 <-> 161
c C1 <-> 162
c G0_0 <-> 165
c A0 <-> 166
c B0 <-> 167
c Cin <-> 168
c b0 <-> 169
p cnf 169 444
1 62 -61 0
1 -62 61 0
-1 62 61 0
-1 -62 -61 0
2 22 -1 0
2 -22 1 0
-2 22 1 0
-2 -22 -1 0
3 60 2 0
3 -60 -2 0
-3 60 -2 0
-3 -60 2 0
3 0
-4 -5 0
-4 8 0
4 -8 5 0
-5 10 0
-5 168 0
5 -168 -10 0
-6 -7 0
-6 13 0
6 -13 7 0
-7 -4 0
-7 15 0
7 -15 4 0
-8 -9 0
-8 16 0
8 -16 9 0
-9 18 0
-9 -19 0
9 19 -18 0
-10 18 0
-10 21 0
10 -21 -18 0
-11 -12 0
-11 24 0
11 -24 12 0
-12 -6 0
-12 26 0
12 -26 6 0
-13 -14 0
-13 27 0
13 -27 14 0
-14 29 0
-14 -30 0
14 30 -29 0
-15 29 0
-15 32 0
15 -32 -29 0
-16 -17 0
-16 33 0
16 -33 17 0
-17 35 0
-17 -36 0
17 36 -35 0
-18 35 0
-18 38 0
18 -38 -35 0
-19 -20 0
-19 39 0
19 -39 20 0
-20 41 0
-20 -42 0
20 42 -41 0
-21 41 0
-21 44 0
21 -44 -41 0
-22 -23 0
-22 -67 0
22 67 23 0
-23 -11 0
-23 45 0
23 -45 11 0
-24 -25 0
-24 -74 0
24 74 25 0
-25 46 0
-25 81 0
25 -81 -46 0
-26 46 0
-26 47 0
26 -47 -46 0
-27 -28 0
-27 -88 0
27 88 28 0
-28 48 0
-28 95 0
28 -95 -48 0
-29 48 0
-29 49 0
29 -49 -48 0
-30 -31 0
-30 -102 0
30 102 31 0
-31 50 0
-31 109 0
31 -109 -50 0
-32 50 0
-32 51 0
32 -51 -50 0
-33 -34 0
-33 -116 0
33 116 34 0
-34 52 0
-34 123 0
34 -123 -52 0
-35 52 0
-35 53 0
35 -53 -52 0
-36 -37 0
-36 -130 0
36 130 37 0
-37 54 0
-37 137 0
37 -137 -54 0
-38 54 0
-38 55 0
38 -55 -54 0
-39 -40 0
-39 -144 0
39 144 40 0
-40 56 0
-40 151 0
40 -151 -56 0
-41 56 0
-41 57 0
41 -57 -56 0
-42 -43 0
-42 -158 0
42 158 43 0
-43 58 0
-43 165 0
43 -165 -58 0
-44 58 0
-44 59 0
44 -59 -58 0
45 -68 0
45 -69 0
-45 69 68 0
46 -75 0
46 -76 0
-46 76 75 0
47 -82 0
47 -83 0
-47 83 82 0
48 -89 0
48 -90 0
-48 90 89 0
49 -96 0
49 -97 0
-49 97 96 0
50 -103 0
50 -104 0
-50 104 103 0
51 -110 0
51 -111 0
-51 111 110 0
52 -117 0
52 -118 0
-52 118 117 0
53 -124 0
53 -125 0
-53 125 124 0
54 -131 0
54 -132 0
-54 132 131 0
55 -138 0
55 -139 0
-55 139 138 0
56 -145 0
56 -146 0
-56 146 145 0
57 -152 0
57 -153 0
-57 153 152 0
58 -159 0
58 -160 0
-58 160 159 0
59 -166 0
59 -167 0
-59 167 166 0
60 64 -1 0
60 -64 1 0
-60 64 1 0
-60 -64 -1 0
62 168 -63 0
62 -168 63 0
-62 168 63 0
-62 -168 -63 0
64 -65 0
64 -66 0
64 -67 0
-64 67 66 65 0
-65 69 0
-65 71 0
65 -71 -69 0
-66 68 0
-66 71 0
66 -71 -68 0
-67 68 0
-67 69 0
67 -69 -68 0
69 168 -70 0
69 -168 70 0
-69 168 70 0
-69 -168 -70 0
71 -72 0
71 -73 0
71 -74 0
-71 74 73 72 0
-72 76 0
-72 78 0
72 -78 -76 0
-73 75 0
-73 78 0
73 -78 -75 0
-74 75 0
-74 76 0
74 -76 -75 0
76 168 -77 0
76 -168 77 0
-76 168 77 0
-76 -168 -77 0
78 -79 0
78 -80 0
78 -81 0
-78 81 80 79 0
-79 83 0
-79 85 0
79 -85 -83 0
-80 82 0
-80 85 0
80 -85 -82 0
-81 82 0
-81 83 0
81 -83 -82 0
83 168 -84 0
83 -168 84 0
-83 168 84 0
-83 -168 -84 0
85 -86 0
85 -87 0
85 -88 0
-85 88 87 86 0
-86 90 0
-86 92 0
86 -92 -90 0
-87 89 0
-87 92 0
87 -92 -89 0
-88 89 0
-88 90 0
88 -90 -89 0
90 168 -91 0
90 -168 91 0
-90 168 91 0
-90 -168 -91 0
92 -93 0
92 -94 0
92 -95 0
-92 95 94 93 0
-93 97 0
-93 99 0
93 -99 -97 0
-94 96 0
-94 99 0
94 -99 -96 0
-95 96 0
-95 97 0
95 -97 -96 0
97 168 -98 0
97 -168 98 0
-97 168 98 0
-97 -168 -98 0
99 -100 0
99 -101 0
99 -102 0
-99 102 101 100 0
-100 104 0
-100 106 0
100 -106 -104 0
-101 103 0
-101 106 0
101 -106 -103 0
-102 103 0
-102 104 0
102 -104 -103 0
104 168 -105 0
104 -168 105 0
-104 168 105 0
-104 -168 -105 0
106 -107 0
106 -108 0
106 -109 0
-106 109 108 107 0
-107 111 0
-107 113 0
107 -113 -111 0
-108 110 0
-108 113 0
108 -113 -110 0
-109 110 0
-109 111 0
109 -111 -110 0
111 168 -112 0
111 -168 112 0
-111 168 112 0
-111 -168 -112 0
113 -114 0
113 -115 0
113 -116 0
-113 116 115 114 0
-114 118 0
-114 120 0
114 -120 -118 0
-115 117 0
-115 120 0
115 -120 -117 0
-116 117 0
-116 118 0
116 -118 -117 0
118 168 -119 0
118 -168 119 0
-118 168 119 0
-118 -168 -119 0
120 -121 0
120 -122 0
120 -123 0
-120 123 122 121 0
-121 125 0
-121 127 0
121 -127 -125 0
-122 124 0
-122 127 0
122 -127 -124 0
-123 124 0
-123 125 0
123 -125 -124 0
125 168 -126 0
125 -168 126 0
-125 168 126 0
-125 -168 -126 0
127 -128 0
127 -129 0
127 -130 0
-127 130 129 128 0
-128 132 0
-128 134 0
128 -134 -132 0
-129 131 0
-129 134 0
129 -134 -131 0
-130 131 0
-130 132 0
130 -132 -131 0
132 168 -133 0
132 -168 133 0
-132 168 133 0
-132 -168 -133 0
134 -135 0
134 -136 0
134 -137 0
-134 137 136 135 0
-135 139 0
-135 141 0
135 -141 -139 0
-136 138 0
-136 141 0
136 -141 -138 0
-137 138 0
-137 139 0
137 -139 -138 0
139 168 -140 0
139 -168 140 0
-139 168 140 0
-139 -168 -140 0
141 -142 0
141 -143 0
141 -144 0
-141 144 143 142 0
-142 146 0
-142 148 0
142 -148 -146 0
-143 145 0
-143 148 0
143 -148 -145 0
-144 145 0
-144 146 0
144 -146 -145 0
146 168 -147 0
146 -168 147 0
-146 168 147 0
-146 -168 -147 0
148 -149 0
148 -150 0
148 -151 0
-148 151 150 149 0
-149 153 0
-149 155 0
149 -155 -153 0
-150 152 0
-150 155 0
150 -155 -152 0
-151 152 0
-151 153 0
151 -153 -152 0
153 168 -154 0
153 -168 154 0
-153 168 154 0
-153 -168 -154 0
155 -156 0
155 -157 0
155 -158 0
-155 158 157 156 0
-156 160 0
-156 162 0
156 -162 -160 0
-157 159 0
-157 162 0
157 -162 -159 0
-158 159 0
-158 160 0
158 -160 -159 0
160 168 -161 0
160 -168 161 0
-160 168 161 0
-160 -168 -161 0
162 -163 0
162 -164 0
162 -165 0
-162 165 164 163 0
-163 167 0
-163 168 0
163 -168 -167 0
-164 166 0
-164 168 0
164 -168 -166 0
-165 166 0
-165 167 0
165 -167 -166 0
167 169 -168 0
167 -169 168 0
-167 169 168 0
-167 -169 -168 0
